\* Problem: Unknown *\

Maximize
 obj: + xp_0_0 + xp_0_1 + xp_0_2 + xp_0_3 + xp_0_4 + xp_0_5 + xp_1_0
 + xp_1_1 + xp_1_2 + xp_2_0 + xp_2_1 + xp_2_2 + xp_2_3 + xp_3_0 + xp_3_1
 + xp_3_2 + xp_3_3 + xp_4_0 + xp_5_0 + xp_5_1 + xp_6_0 + xp_6_1 + xp_7_0
 + xp_7_1 + xp_8_0 + xp_9_0 + xp_10_0 + xp_10_1 + xp_11_0 + xp_11_1
 + xp_11_2 + xp_11_3 + xp_11_4 + xp_12_0 + xp_13_0 + xp_13_1 + xp_14_0
 + xp_14_1 + xp_15_0 + xp_16_0 + xp_17_0 + xp_17_1 + xp_17_2 + xp_18_0
 + xp_18_1 + xp_18_2 + xp_18_3 + xp_18_4 + xp_19_0 + xp_19_1 + xp_19_2
 + xp_20_0 + xp_20_1 + xp_20_2 + xp_21_0 + xp_21_1 + xp_21_2 + xp_21_3
 + xp_22_0 + xp_22_1 + xp_22_2 + xp_22_3 + xp_23_0 + xp_23_1 + xp_23_2
 + xp_23_3

Subject To
 r_1: 0 xp_0_0 <= 26.5090230242688
 r_2: + xp_18_4 + xp_5_1 + xp_2_3 + xp_0_5 <= 26.1838588989845
 r_3: + xp_18_2 <= 26.9620253164557
 r_4: + xp_18_3 + xp_15_0 <= 27.6367006487488
 r_5: + xp_18_0 <= 25.8704453441296
 r_6: + xp_18_1 <= 26.5090230242688
 r_7: 0 xp_0_0 <= 26.5090230242688
 r_8: + xp_23_3 + xp_11_3 + xp_3_3 + xp_3_2 + xp_2_1 <= 26.1838588989845
 r_9: + xp_23_2 + xp_11_1 + xp_6_1 + xp_3_1 <= 26.9620253164557
 r_10: + xp_17_2 + xp_11_4 + xp_3_0 <= 27.6367006487488
 r_11: + xp_18_1 + xp_11_2 <= 25.8704453441296
 r_12: + xp_11_0 <= 26.5090230242688
 r_13: 0 xp_0_0 <= 28.7484662576687
 r_14: + xp_21_2 + xp_14_0 + xp_0_3 + xp_0_1 <= 26.1838588989845
 r_15: + xp_21_0 + xp_19_2 <= 26.9620253164557
 r_16: + xp_22_2 + xp_21_1 + xp_0_4 + xp_0_2 <= 27.6367006487488
 r_17: + xp_0_0 <= 25.8704453441296
 r_18: + xp_4_0 + xp_0_5 <= 26.5090230242688
 r_19: + xp_19_0 <= 26.5090230242688
 r_20: + xp_21_3 + xp_19_1 + xp_14_1 <= 28.7484662576687
 r_21: + xp_20_1 <= 26.1838588989845
 r_22: + xp_21_2 + xp_7_1 <= 26.9620253164557
 r_23: + xp_22_3 + xp_3_3 <= 27.6367006487488
 r_24: + xp_23_3 + xp_3_2 + xp_0_3 <= 27.1553784860558
 r_25: 0 xp_0_0 <= 28.7484662576687
 r_26: + xp_18_4 + xp_0_5 + xp_0_1 <= 25.8704453441296
 r_27: + xp_11_3 <= 26.1838588989845
 r_28: + xp_10_1 <= 26.1838588989845
 r_29: + xp_20_2 <= 26.9620253164557
 r_30: + xp_2_0 <= 26.9620253164557
 r_31: + xp_23_2 + xp_18_2 + xp_6_1 + xp_3_1 <= 27.1553784860558
 r_32: + xp_2_2 <= 28.7484662576687
 r_33: + xp_11_1 + xp_2_3 <= 26.9620253164557
 r_34: + xp_19_2 + xp_2_1 <= 26.9620253164557
 r_35: 0 xp_0_0 <= 27.6367006487488
 r_36: + xp_9_0 <= 27.6367006487488
 r_37: + xp_21_1 + xp_13_1 + xp_1_2 <= 27.1553784860558
 r_38: + xp_1_1 + xp_0_4 <= 28.7484662576687
 r_39: + xp_17_1 + xp_3_3 <= 27.6367006487488
 r_40: + xp_0_2 <= 25.8704453441296
 r_41: + xp_12_0 <= 27.1553784860558
 r_42: + xp_21_1 <= 27.1553784860558
 r_43: + xp_16_0 <= 27.1553784860558
 r_44: + xp_23_3 + xp_23_2 + xp_23_1 + xp_1_2 <= 28.7484662576687
 r_45: + xp_3_2 + xp_3_1 <= 27.6367006487488
 r_46: + xp_18_2 + xp_0_3 <= 25.8704453441296
 r_47: + xp_22_1 + xp_13_1 <= 28.7484662576687
 r_48: + xp_13_0 <= 28.7484662576687
 r_49: 0 xp_0_0 <= 27.6367006487488
 r_50: + xp_0_4 <= 25.8704453441296
 r_51: + xp_1_2 + xp_1_1 <= 27.6367006487488
 r_52: + xp_8_0 <= 27.6367006487488
 r_53: + xp_1_0 <= 27.6367006487488
 r_54: + xp_18_3 <= 25.8704453441296
 r_55: + xp_11_4 <= 27.6367006487488
 r_56: 0 xp_0_0 <= 27.6367006487488
 r_57: + xp_22_2 <= 25.8704453441296
 r_58: + xp_22_3 + xp_5_0 <= 25.8704453441296
 r_59: + xp_22_0 + xp_17_1 <= 25.8704453441296
 r_60: + xp_23_1 + xp_6_0 <= 25.8704453441296
 r_61: + xp_23_0 + xp_22_1 <= 25.8704453441296
 r_62: + xp_17_0 <= 25.8704453441296
 r_63: + xp_11_2 + xp_5_1 <= 25.8704453441296
 r_64: + xp_23_3 + xp_23_2 + xp_17_2 + xp_6_1 <= 25.8704453441296
 r_65: + xp_20_1 + xp_14_1 + xp_10_1 + xp_7_1 + xp_2_2
 <= 28.7484662576687
 r_66: + xp_21_3 + xp_20_2 + xp_7_0 <= 28.7484662576687
 r_67: + xp_19_1 + xp_10_0 <= 28.7484662576687
 r_68: + xp_20_0 <= 28.7484662576687

Bounds
 0 <= xp_0_0 <= 27.9588765664715
 0 <= xp_0_1 <= 8.49681963606014
 0 <= xp_0_2 <= 15.8069778322943
 0 <= xp_0_3 <= 1.61391351264769
 0 <= xp_0_4 <= 5.26899261076476
 0 <= xp_0_5 <= 1.61391351264769
 0 <= xp_1_0 <= 20.4113924050633
 0 <= xp_1_1 <= 12.0727900791192
 0 <= xp_1_2 <= 1.53480485758967
 0 <= xp_2_0 <= 22.515838591788
 0 <= xp_2_1 <= 5.26899261076476
 0 <= xp_2_2 <= 1.43986814872891
 0 <= xp_2_3 <= 4.31960444618672
 0 <= xp_3_0 <= 18.7025316455696
 0 <= xp_3_1 <= 0.965184604425111
 0 <= xp_3_2 <= 6.23417721518987
 0 <= xp_3_3 <= 5.26899261076476
 0 <= xp_4_0 <= 25.3164556962025
 0 <= xp_5_0 <= 15.1898734177215
 0 <= xp_5_1 <= 10.126582278481
 0 <= xp_6_0 <= 18.2278481012658
 0 <= xp_6_1 <= 4.55696202531646
 0 <= xp_7_0 <= 17.4683544303797
 0 <= xp_7_1 <= 4.36708860759494
 0 <= xp_8_0 <= 19.620253164557
 0 <= xp_9_0 <= 18.1962025316456
 0 <= xp_10_0 <= 14.5569620253165
 0 <= xp_10_1 <= 3.63924050632911
 0 <= xp_11_0 <= 26.3449630538238
 0 <= xp_11_1 <= 12.4999894620148
 0 <= xp_11_2 <= 11.5189873417722
 0 <= xp_11_3 <= 6.24999473100739
 0 <= xp_11_4 <= 0.981002120242627
 0 <= xp_12_0 <= 17.0886075949367
 0 <= xp_13_0 <= 13.2911392405063
 0 <= xp_13_1 <= 3.32278481012658
 0 <= xp_14_0 <= 12.6582278481013
 0 <= xp_14_1 <= 3.16455696202532
 0 <= xp_15_0 <= 15.6645569620253
 0 <= xp_16_0 <= 15.0316455696203
 0 <= xp_17_0 <= 29.8734387974894
 0 <= xp_17_1 <= 10.5854272309969
 0 <= xp_17_2 <= 3.52847574366562
 0 <= xp_18_0 <= 18.9557067405169
 0 <= xp_18_1 <= 8.41772151898734
 0 <= xp_18_2 <= 8.41772151898734
 0 <= xp_18_3 <= 3.14872890822258
 0 <= xp_18_4 <= 3.14872890822258
 0 <= xp_19_0 <= 29.3987552531856
 0 <= xp_19_1 <= 9.16137659808546
 0 <= xp_19_2 <= 3.05379219936182
 0 <= xp_20_0 <= 26.8670991455802
 0 <= xp_20_1 <= 11.0601213132859
 0 <= xp_20_2 <= 2.89556435126055
 0 <= xp_21_0 <= 26.1708966139346
 0 <= xp_21_1 <= 5.09492617087554
 0 <= xp_21_2 <= 2.54746308543777
 0 <= xp_21_3 <= 5.26899261076476
 0 <= xp_22_0 <= 15
 0 <= xp_22_1 <= 7.5
 0 <= xp_22_2 <= 2.23100738923524
 0 <= xp_22_3 <= 12.7689926107648
 0 <= xp_23_0 <= 22.5
 0 <= xp_23_1 <= 7.5
 0 <= xp_23_2 <= 2.23100738923524
 0 <= xp_23_3 <= 5.26899261076476

End
